14
first
C	-0.6726341448456976	-0.01871282384495293	0
C	0.6726368851543023	0.018621386155047104	0
S	1.6075124651543025	1.542041016155047	0
C	3.1835495951543025	0.7547602161550471	0
C	3.2205175751543025	-0.5769831438449529	0
S	1.6906316351543023	-1.450543063844953	0
S	-1.6905297848456975	1.450523206155047	0
C	-3.2204736848456976	0.5770769061550471	0
C	-3.1835991348456973	-0.754669313844953	0
S	-1.6076129948456974	-1.542066033844953	0
H	-4.123670224845697	1.172880906155047	0
H	-4.052474044845698	-1.399493003844953	0
H	4.123759345154302	-1.172718483844953	0
H	4.052377585154303	1.399647006155047	0