14
second
C	-0.6726337020067061	-0.018712734316371136	3.4999971218730437
C	0.6726373279932938	0.0186214756836289	3.5000004918730436
S	1.607512907993294	1.542041105683629	3.500001171873044
C	3.183550037993294	0.7547603056836288	3.500000221873044
C	3.220518017993294	-0.5769830543163711	3.4999989618730436
S	1.6906320779932937	-1.4505429743163711	3.5000005418730438
S	-1.690529342006706	1.450523295683629	3.4999993318730436
C	-3.220473242006706	0.5770769956836289	3.499999801873044
C	-3.1835986920067056	-0.7546692243163712	3.4999997518730437
S	-1.607612552006706	-1.5420659443163711	3.5000003418730437
H	-4.123669782006706	1.1728809956836288	3.5000004818730437
H	-4.052473602006707	-1.399492914316371	3.499999731873044
H	4.1237597879932935	-1.172718394316371	3.5000000618730436
H	4.052378027993294	1.3996470956836289	3.499999071873044